Academic license - for non-commercial use only
Optimize a model with 648 rows, 420 columns and 1618 nonzeros
Variable types: 20 continuous, 400 integer (400 binary)
Coefficient statistics:
  Matrix range     [1e+00, 1e+06]
  Objective range  [1e+00, 1e+00]
  Bounds range     [1e+00, 1e+00]
  RHS range        [1e+00, 3e+01]
Presolve removed 319 rows and 263 columns
Presolve time: 0.00s
Presolved: 329 rows, 157 columns, 1006 nonzeros
Variable types: 20 continuous, 137 integer (137 binary)

Root relaxation: objective 1.500000e+01, 133 iterations, 0.00 seconds

    Nodes    |    Current Node    |     Objective Bounds      |     Work
 Expl Unexpl |  Obj  Depth IntInf | Incumbent    BestBd   Gap | It/Node Time

     0     0   15.00000    0    1          -   15.00000      -     -    0s
H    0     0                      17.0000000   15.00000  11.8%     -    0s
     0     0   15.00000    0    2   17.00000   15.00000  11.8%     -    0s
     0     0   15.00001    0    1   17.00000   15.00001  11.8%     -    0s
*    0     0               0      15.0000140   15.00001  0.00%     -    0s

Cutting planes:
  Cover: 3
  Implied bound: 4

Explored 1 nodes (263 simplex iterations) in 0.03 seconds
Thread count was 4 (of 4 available processors)

Solution count 2: 15 17 
No other solutions better than 15

Optimal solution found (tolerance 1.00e-04)
Best objective 1.500000899993e+01, best bound 1.500000899993e+01, gap 0.0000%
value of n:
20
value of card_S:
58
S precedence tuples:
Tuple{Int64,Int64}[(12, 15), (8, 12), (11, 17), (14, 17), (19, 20), (18, 19), (9, 13), (8, 16), (16, 18), (18, 20), (11, 16), (8, 14), (16, 19), (10, 16), (4, 14), (15, 20), (5, 6), (9, 11), (17, 20), (13, 19), (11, 12), (11, 15), (11, 14), (3, 16), (7, 15), (13, 18), (11, 20), (8, 18), (2, 8), (10, 11), (11, 19), (9, 10), (2, 13), (12, 16), (13, 15), (9, 19), (10, 13), (15, 17), (1, 15), (3, 9), (10, 18), (6, 10), (14, 20), (4, 8), (7, 13), (6, 13), (2, 10), (10, 15), (6, 11), (2, 12), (11, 13), (14, 16), (2, 3), (15, 18), (3, 10), (7, 18), (15, 16), (8, 19)]
values of t:
[1, 5, 10, 8, 7, 14, 9, 8, 8, 4, 2, 2, 2, 13, 9, 5, 11, 12, 1, 11]
values of d:
[20, 4, 17, 22, 6, 29, 25, 17, 10, 30, 5, 26, 1, 11, 18, 15, 15, 6, 15, 26]
========================================================================
Solução ótima encontrada.
Número de nós explorados: 1
Melhor limitante dual: 15.00
Melhor limitante primal: 15.00
Gap de otimalidade: 0.00
Tempo de execução: 0.03
